begin unit_cell_cart
Ang
       -1.9547442461         1.9547455909         6.2777152853
        1.9547451426        -1.9547446944         6.2777152853
        1.9547451426         1.9547446944        -6.2777152853
end unit_cell_cart

begin atoms_cart
Ang
Fe      0.00000   0.00000   0.00000
Sr      0.00000   0.00000   8.07097
Sr      0.00000   0.00000   4.48446
 O      0.00000   0.00000  10.57197
 O      0.00000   0.00000   1.98346
 O      0.00000   1.95475   0.00000
 O      1.95475   0.00000   0.00000
end atoms_cart

! system
num_wann = 5
num_bands = 10
mp_grid 6 6 6

! job control
exclude_bands : 1-23,34-50
!exclude_bands : 1-16,34-50
iprint = 2

! plotting
wannier_plot = false
wannier_plot_supercell = 3
bands_plot = true
bands_num_points = 100
bands_plot_format = gnuplot
write_hr = true
write_u_matrices = true

! disentanglement
dis_win_min = 2.0
dis_win_max = 15.5
dis_froz_min = 8.6
dis_froz_max = 12.5
dis_num_iter = 1000
dis_conv_tol = 1.0E-12
!dis_mix_ratio = 0.9

! wannierisation
num_iter = 5000
!conv_window = 5
conv_tol = 1e-12

! pp tools
kpath = false
kpath_task = bands
kpath_bands_colour = spin
kpath_num_points=500
begin kpoint_path
 G 0.00  0.00  0.00  N 0.00  0.50  0.00
 N 0.00  0.50  0.00  X 0.00  0.00  0.50
 X 0.00  0.00  0.50  G 0.00  0.00  0.00
 G 0.00  0.00  0.00  M 0.25  0.25 -0.25
end kpoint_path

kslice = false
kslice_task = fermi_lines
fermi_energy = 11.375
kslice_2dkmesh = 200 200
kslice_corner =  0.00  0.00  0.00
!kslice_b1 =     -0.27259  0.27259  0.27259
!kslice_b2 =      0.27259 -0.27259  0.27259
kslice_b1 =     -0.25  0.25  0.25
kslice_b2 =      0.25 -0.25  0.25
!kslice_b1 =      0.00  0.50  0.00
!kslice_b2 =      0.50  0.00  0.00
!kslice_fermi_lines_colour = spin

dos = true
dos_project = 3
!dos_energy_min = 8.
!dos_energy_max = 13.
dos_kmesh = 50
!dos_adpt_smr = false
!dos_smr_type = gauss
!dos_smr_fixed_en_width = 0.05

begin projections
Fe:d:x=1,0,0
end projections

begin kpoints
  0.0000000   0.0000000   0.0000000 
  0.0000000  -0.0000000   0.1666667 
  0.0000000  -0.0000000   0.3333333 
 -0.0000000   0.0000000  -0.5000000 
 -0.0000000   0.0000000  -0.3333333 
  0.0000000   0.0000000  -0.1666667 
  0.0000000   0.1666667  -0.0000000 
  0.0000000   0.1666667   0.1666667 
  0.0000000   0.1666667   0.3333333 
  0.0000000   0.1666667  -0.5000000 
 -0.0000000   0.1666667  -0.3333333 
  0.0000000   0.1666667  -0.1666667 
  0.0000000   0.3333333  -0.0000000 
  0.0000000   0.3333333   0.1666667 
  0.0000000   0.3333333   0.3333333 
  0.0000000   0.3333333  -0.5000000 
  0.0000000   0.3333333  -0.3333333 
  0.0000000   0.3333333  -0.1666667 
 -0.0000000  -0.5000000   0.0000000 
  0.0000000  -0.5000000   0.1666667 
  0.0000000  -0.5000000   0.3333333 
 -0.0000000  -0.5000000  -0.5000000 
 -0.0000000  -0.5000000  -0.3333333 
 -0.0000000  -0.5000000  -0.1666667 
 -0.0000000  -0.3333333   0.0000000 
  0.0000000  -0.3333333   0.1666667 
  0.0000000  -0.3333333   0.3333333 
  0.0000000  -0.3333333  -0.5000000 
 -0.0000000  -0.3333333  -0.3333333 
 -0.0000000  -0.3333333  -0.1666667 
 -0.0000000  -0.1666667   0.0000000 
  0.0000000  -0.1666667   0.1666667 
 -0.0000000  -0.1666667   0.3333333 
 -0.0000000  -0.1666667  -0.5000000 
 -0.0000000  -0.1666667  -0.3333333 
 -0.0000000  -0.1666667  -0.1666667 
  0.1666667   0.0000000   0.0000000 
  0.1666667  -0.0000000   0.1666667 
  0.1666667  -0.0000000   0.3333333 
  0.1666667   0.0000000  -0.5000000 
  0.1666667   0.0000000  -0.3333333 
  0.1666667   0.0000000  -0.1666667 
  0.1666667   0.1666667  -0.0000000 
  0.1666667   0.1666667   0.1666667 
  0.1666667   0.1666667   0.3333333 
  0.1666667   0.1666667  -0.5000000 
  0.1666667   0.1666667  -0.3333333 
  0.1666667   0.1666667  -0.1666667 
  0.1666667   0.3333333   0.0000000 
  0.1666667   0.3333333   0.1666667 
  0.1666667   0.3333333   0.3333333 
  0.1666667   0.3333333  -0.5000000 
  0.1666667   0.3333333  -0.3333333 
  0.1666667   0.3333333  -0.1666667 
  0.1666667  -0.5000000   0.0000000 
  0.1666667  -0.5000000   0.1666667 
  0.1666667  -0.5000000   0.3333333 
  0.1666667  -0.5000000  -0.5000000 
  0.1666667  -0.5000000  -0.3333333 
  0.1666667  -0.5000000  -0.1666667 
  0.1666667  -0.3333333   0.0000000 
  0.1666667  -0.3333333   0.1666667 
  0.1666667  -0.3333333   0.3333333 
  0.1666667  -0.3333333  -0.5000000 
  0.1666667  -0.3333333  -0.3333333 
  0.1666667  -0.3333333  -0.1666667 
  0.1666667  -0.1666667   0.0000000 
  0.1666667  -0.1666667   0.1666667 
  0.1666667  -0.1666667   0.3333333 
  0.1666667  -0.1666667  -0.5000000 
  0.1666667  -0.1666667  -0.3333333 
  0.1666667  -0.1666667  -0.1666667 
  0.3333333   0.0000000   0.0000000 
  0.3333333   0.0000000   0.1666667 
  0.3333333  -0.0000000   0.3333333 
  0.3333333   0.0000000  -0.5000000 
  0.3333333   0.0000000  -0.3333333 
  0.3333333   0.0000000  -0.1666667 
  0.3333333   0.1666667   0.0000000 
  0.3333333   0.1666667   0.1666667 
  0.3333333   0.1666667   0.3333333 
  0.3333333   0.1666667  -0.5000000 
  0.3333333   0.1666667  -0.3333333 
  0.3333333   0.1666667  -0.1666667 
  0.3333333   0.3333333  -0.0000000 
  0.3333333   0.3333333   0.1666667 
  0.3333333   0.3333333   0.3333333 
  0.3333333   0.3333333  -0.5000000 
  0.3333333   0.3333333  -0.3333333 
  0.3333333   0.3333333  -0.1666667 
  0.3333333  -0.5000000   0.0000000 
  0.3333333  -0.5000000   0.1666667 
  0.3333333  -0.5000000   0.3333333 
  0.3333333  -0.5000000  -0.5000000 
  0.3333333  -0.5000000  -0.3333333 
  0.3333333  -0.5000000  -0.1666667 
  0.3333333  -0.3333333   0.0000000 
  0.3333333  -0.3333333   0.1666667 
  0.3333333  -0.3333333   0.3333333 
  0.3333333  -0.3333333  -0.5000000 
  0.3333333  -0.3333333  -0.3333333 
  0.3333333  -0.3333333  -0.1666667 
  0.3333333  -0.1666667   0.0000000 
  0.3333333  -0.1666667   0.1666667 
  0.3333333  -0.1666667   0.3333333 
  0.3333333  -0.1666667  -0.5000000 
  0.3333333  -0.1666667  -0.3333333 
  0.3333333  -0.1666667  -0.1666667 
 -0.5000000   0.0000000   0.0000000 
 -0.5000000   0.0000000   0.1666667 
 -0.5000000   0.0000000   0.3333333 
 -0.5000000   0.0000000  -0.5000000 
 -0.5000000   0.0000000  -0.3333333 
 -0.5000000   0.0000000  -0.1666667 
 -0.5000000   0.1666667  -0.0000000 
 -0.5000000   0.1666667   0.1666667 
 -0.5000000   0.1666667   0.3333333 
 -0.5000000   0.1666667  -0.5000000 
 -0.5000000   0.1666667  -0.3333333 
 -0.5000000   0.1666667  -0.1666667 
 -0.5000000   0.3333333  -0.0000000 
 -0.5000000   0.3333333   0.1666667 
 -0.5000000   0.3333333   0.3333333 
 -0.5000000   0.3333333  -0.5000000 
 -0.5000000   0.3333333  -0.3333333 
 -0.5000000   0.3333333  -0.1666667 
 -0.5000000  -0.5000000   0.0000000 
 -0.5000000  -0.5000000   0.1666667 
 -0.5000000  -0.5000000   0.3333333 
 -0.5000000  -0.5000000  -0.5000000 
 -0.5000000  -0.5000000  -0.3333333 
 -0.5000000  -0.5000000  -0.1666667 
 -0.5000000  -0.3333333   0.0000000 
 -0.5000000  -0.3333333   0.1666667 
 -0.5000000  -0.3333333   0.3333333 
 -0.5000000  -0.3333333  -0.5000000 
 -0.5000000  -0.3333333  -0.3333333 
 -0.5000000  -0.3333333  -0.1666667 
 -0.5000000  -0.1666667   0.0000000 
 -0.5000000  -0.1666667   0.1666667 
 -0.5000000  -0.1666667   0.3333333 
 -0.5000000  -0.1666667  -0.5000000 
 -0.5000000  -0.1666667  -0.3333333 
 -0.5000000  -0.1666667  -0.1666667 
 -0.3333333   0.0000000   0.0000000 
 -0.3333333   0.0000000   0.1666667 
 -0.3333333  -0.0000000   0.3333333 
 -0.3333333   0.0000000  -0.5000000 
 -0.3333333   0.0000000  -0.3333333 
 -0.3333333   0.0000000  -0.1666667 
 -0.3333333   0.1666667  -0.0000000 
 -0.3333333   0.1666667   0.1666667 
 -0.3333333   0.1666667   0.3333333 
 -0.3333333   0.1666667  -0.5000000 
 -0.3333333   0.1666667  -0.3333333 
 -0.3333333   0.1666667  -0.1666667 
 -0.3333333   0.3333333  -0.0000000 
 -0.3333333   0.3333333   0.1666667 
 -0.3333333   0.3333333   0.3333333 
 -0.3333333   0.3333333  -0.5000000 
 -0.3333333   0.3333333  -0.3333333 
 -0.3333333   0.3333333  -0.1666667 
 -0.3333333  -0.5000000  -0.0000000 
 -0.3333333  -0.5000000   0.1666667 
 -0.3333333  -0.5000000   0.3333333 
 -0.3333333  -0.5000000  -0.5000000 
 -0.3333333  -0.5000000  -0.3333333 
 -0.3333333  -0.5000000  -0.1666667 
 -0.3333333  -0.3333333   0.0000000 
 -0.3333333  -0.3333333   0.1666667 
 -0.3333333  -0.3333333   0.3333333 
 -0.3333333  -0.3333333  -0.5000000 
 -0.3333333  -0.3333333  -0.3333333 
 -0.3333333  -0.3333333  -0.1666667 
 -0.3333333  -0.1666667  -0.0000000 
 -0.3333333  -0.1666667   0.1666667 
 -0.3333333  -0.1666667   0.3333333 
 -0.3333333  -0.1666667  -0.5000000 
 -0.3333333  -0.1666667  -0.3333333 
 -0.3333333  -0.1666667  -0.1666667 
 -0.1666667   0.0000000   0.0000000 
 -0.1666667  -0.0000000   0.1666667 
 -0.1666667  -0.0000000   0.3333333 
 -0.1666667  -0.0000000  -0.5000000 
 -0.1666667   0.0000000  -0.3333333 
 -0.1666667   0.0000000  -0.1666667 
 -0.1666667   0.1666667  -0.0000000 
 -0.1666667   0.1666667   0.1666667 
 -0.1666667   0.1666667   0.3333333 
 -0.1666667   0.1666667  -0.5000000 
 -0.1666667   0.1666667  -0.3333333 
 -0.1666667   0.1666667  -0.1666667 
 -0.1666667   0.3333333  -0.0000000 
 -0.1666667   0.3333333   0.1666667 
 -0.1666667   0.3333333   0.3333333 
 -0.1666667   0.3333333  -0.5000000 
 -0.1666667   0.3333333  -0.3333333 
 -0.1666667   0.3333333  -0.1666667 
 -0.1666667  -0.5000000   0.0000000 
 -0.1666667  -0.5000000   0.1666667 
 -0.1666667  -0.5000000   0.3333333 
 -0.1666667  -0.5000000  -0.5000000 
 -0.1666667  -0.5000000  -0.3333333 
 -0.1666667  -0.5000000  -0.1666667 
 -0.1666667  -0.3333333   0.0000000 
 -0.1666667  -0.3333333   0.1666667 
 -0.1666667  -0.3333333   0.3333333 
 -0.1666667  -0.3333333  -0.5000000 
 -0.1666667  -0.3333333  -0.3333333 
 -0.1666667  -0.3333333  -0.1666667 
 -0.1666667  -0.1666667   0.0000000 
 -0.1666667  -0.1666667   0.1666667 
 -0.1666667  -0.1666667   0.3333333 
 -0.1666667  -0.1666667  -0.5000000 
 -0.1666667  -0.1666667  -0.3333333 
 -0.1666667  -0.1666667  -0.1666667 
end kpoints
