&inputpp 
   prefix             = 'sfo', 
   outdir             = './work/',
   seedname     = 'sfo'
   write_mmn    = .true.
   write_amn    = .true.
   write_unk    = .false.
/
