begin unit_cell_cart
Ang
   4.066704097   0.000000000   0.000000000
   0.000000000   4.066704097   0.000000000
   0.000000000   0.000000000   4.066704097
end unit_cell_cart

begin atoms_frac
Cu1           0.5000000000        0.5000000000        0.5000000000
K2            0.0000000000        0.0000000000        0.0000000000
F3            0.0000000000        0.5000000000        0.5000000000
F3            0.5000000000        0.0000000000        0.5000000000
F3            0.5000000000        0.5000000000        0.0000000000

end atoms_frac

! system
num_wann = 5
num_bands = 14
mp_grid 8 8 8 

iprint = 2

! job control
exclude_bands : 1-11, 26-120

! plotting
bands_plot_format = gnuplot
write_hr = true
write_u_matrices = true

! disentanglement
!dis_win_min = 4.1
!dis_win_max = 22.0
!dis_froz_min = 6.0
!dis_froz_max = 13.5
!dis_num_iter = 2000
!dis_conv_tol = 1.0E-9
!dis_mix_ratio = 0.9

! wannierisation
num_iter = 4000
bands_plot = .true.
!wannier_plot = .true.
!wannier_plot_supercell=3
!wannier_plot_list = 1;2;3;4;5
conv_window = 10
conv_tol = 1e-9
!site_symmetry = true
!symmetrize_eps = 1.0E-3

! pp tools
kpath = true
kpath_task = bands
kpath_bands_colour = spin
kpath_num_points=40
kmesh_tol = 0.0001

begin kpoint_path
G 0.000 0.000 0.000 X 0.000 0.500 0.000
X 0.000 0.500 0.000 M 0.500 0.500 0.000
M 0.500 0.500 0.000 G 0.000 0.000 0.000
G 0.000 0.000 0.000 R 0.500 0.500 0.500
R 0.500 0.500 0.500 X 0.000 0.500 0.000
end kpoint_path


begin projections
Cu1:d
end projections


begin kpoints
   0.0000000000   0.0000000000   0.0000000000
   0.0000000000   0.0000000000   0.1250000000
  -0.0000000000  -0.0000000000  -0.1250000000
   0.1250000000   0.0000000000   0.0000000000
  -0.1250000000  -0.0000000000  -0.0000000000
   0.0000000000   0.1250000000   0.0000000000
  -0.0000000000  -0.1250000000  -0.0000000000
   0.0000000000   0.0000000000   0.2500000000
  -0.0000000000  -0.0000000000  -0.2500000000
   0.2500000000   0.0000000000   0.0000000000
  -0.2500000000  -0.0000000000  -0.0000000000
   0.0000000000   0.2500000000   0.0000000000
  -0.0000000000  -0.2500000000  -0.0000000000
   0.0000000000   0.0000000000   0.3750000000
  -0.0000000000  -0.0000000000  -0.3750000000
   0.3750000000   0.0000000000   0.0000000000
  -0.3750000000  -0.0000000000  -0.0000000000
   0.0000000000   0.3750000000   0.0000000000
  -0.0000000000  -0.3750000000  -0.0000000000
   0.0000000000   0.0000000000   0.5000000000
   0.5000000000   0.0000000000   0.0000000000
   0.0000000000   0.5000000000   0.0000000000
   0.0000000000   0.1250000000   0.1250000000
  -0.0000000000  -0.1250000000  -0.1250000000
   0.0000000000  -0.1250000000   0.1250000000
  -0.0000000000   0.1250000000  -0.1250000000
   0.1250000000   0.0000000000  -0.1250000000
  -0.1250000000  -0.0000000000   0.1250000000
  -0.1250000000   0.0000000000  -0.1250000000
   0.1250000000  -0.0000000000   0.1250000000
   0.1250000000  -0.1250000000   0.0000000000
  -0.1250000000   0.1250000000  -0.0000000000
  -0.1250000000  -0.1250000000   0.0000000000
   0.1250000000   0.1250000000  -0.0000000000
   0.0000000000   0.1250000000   0.2500000000
  -0.0000000000  -0.1250000000  -0.2500000000
   0.0000000000  -0.1250000000   0.2500000000
  -0.0000000000   0.1250000000  -0.2500000000
   0.1250000000   0.0000000000  -0.2500000000
  -0.1250000000  -0.0000000000   0.2500000000
  -0.1250000000   0.0000000000  -0.2500000000
   0.1250000000  -0.0000000000   0.2500000000
   0.2500000000  -0.1250000000   0.0000000000
  -0.2500000000   0.1250000000  -0.0000000000
  -0.2500000000  -0.1250000000   0.0000000000
   0.2500000000   0.1250000000  -0.0000000000
   0.0000000000   0.2500000000   0.1250000000
  -0.0000000000  -0.2500000000  -0.1250000000
   0.0000000000   0.2500000000  -0.1250000000
  -0.0000000000  -0.2500000000   0.1250000000
   0.1250000000   0.2500000000   0.0000000000
  -0.1250000000  -0.2500000000  -0.0000000000
  -0.1250000000   0.2500000000   0.0000000000
   0.1250000000  -0.2500000000  -0.0000000000
   0.2500000000   0.0000000000   0.1250000000
  -0.2500000000  -0.0000000000  -0.1250000000
   0.2500000000   0.0000000000  -0.1250000000
  -0.2500000000  -0.0000000000   0.1250000000
   0.0000000000   0.1250000000   0.3750000000
  -0.0000000000  -0.1250000000  -0.3750000000
   0.0000000000  -0.1250000000   0.3750000000
  -0.0000000000   0.1250000000  -0.3750000000
   0.1250000000   0.0000000000  -0.3750000000
  -0.1250000000  -0.0000000000   0.3750000000
  -0.1250000000   0.0000000000  -0.3750000000
   0.1250000000  -0.0000000000   0.3750000000
   0.3750000000  -0.1250000000   0.0000000000
  -0.3750000000   0.1250000000  -0.0000000000
  -0.3750000000  -0.1250000000   0.0000000000
   0.3750000000   0.1250000000  -0.0000000000
   0.0000000000   0.3750000000   0.1250000000
  -0.0000000000  -0.3750000000  -0.1250000000
   0.0000000000   0.3750000000  -0.1250000000
  -0.0000000000  -0.3750000000   0.1250000000
   0.1250000000   0.3750000000   0.0000000000
  -0.1250000000  -0.3750000000  -0.0000000000
  -0.1250000000   0.3750000000   0.0000000000
   0.1250000000  -0.3750000000  -0.0000000000
   0.3750000000   0.0000000000   0.1250000000
  -0.3750000000  -0.0000000000  -0.1250000000
   0.3750000000   0.0000000000  -0.1250000000
  -0.3750000000  -0.0000000000   0.1250000000
   0.0000000000   0.1250000000   0.5000000000
  -0.0000000000  -0.1250000000   0.5000000000
   0.1250000000   0.0000000000   0.5000000000
  -0.1250000000  -0.0000000000   0.5000000000
   0.5000000000  -0.1250000000   0.0000000000
   0.5000000000   0.1250000000  -0.0000000000
   0.0000000000   0.5000000000   0.1250000000
  -0.0000000000   0.5000000000  -0.1250000000
   0.1250000000   0.5000000000   0.0000000000
  -0.1250000000   0.5000000000  -0.0000000000
   0.5000000000   0.0000000000   0.1250000000
   0.5000000000  -0.0000000000  -0.1250000000
   0.0000000000   0.2500000000   0.2500000000
  -0.0000000000  -0.2500000000  -0.2500000000
   0.0000000000  -0.2500000000   0.2500000000
  -0.0000000000   0.2500000000  -0.2500000000
   0.2500000000   0.0000000000  -0.2500000000
  -0.2500000000  -0.0000000000   0.2500000000
  -0.2500000000   0.0000000000  -0.2500000000
   0.2500000000  -0.0000000000   0.2500000000
   0.2500000000  -0.2500000000   0.0000000000
  -0.2500000000   0.2500000000  -0.0000000000
  -0.2500000000  -0.2500000000   0.0000000000
   0.2500000000   0.2500000000  -0.0000000000
   0.0000000000   0.2500000000   0.3750000000
  -0.0000000000  -0.2500000000  -0.3750000000
   0.0000000000  -0.2500000000   0.3750000000
  -0.0000000000   0.2500000000  -0.3750000000
   0.2500000000   0.0000000000  -0.3750000000
  -0.2500000000  -0.0000000000   0.3750000000
  -0.2500000000   0.0000000000  -0.3750000000
   0.2500000000  -0.0000000000   0.3750000000
   0.3750000000  -0.2500000000   0.0000000000
  -0.3750000000   0.2500000000  -0.0000000000
  -0.3750000000  -0.2500000000   0.0000000000
   0.3750000000   0.2500000000  -0.0000000000
   0.0000000000   0.3750000000   0.2500000000
  -0.0000000000  -0.3750000000  -0.2500000000
   0.0000000000   0.3750000000  -0.2500000000
  -0.0000000000  -0.3750000000   0.2500000000
   0.2500000000   0.3750000000   0.0000000000
  -0.2500000000  -0.3750000000  -0.0000000000
  -0.2500000000   0.3750000000   0.0000000000
   0.2500000000  -0.3750000000  -0.0000000000
   0.3750000000   0.0000000000   0.2500000000
  -0.3750000000  -0.0000000000  -0.2500000000
   0.3750000000   0.0000000000  -0.2500000000
  -0.3750000000  -0.0000000000   0.2500000000
   0.0000000000   0.2500000000   0.5000000000
  -0.0000000000  -0.2500000000   0.5000000000
   0.2500000000   0.0000000000   0.5000000000
  -0.2500000000  -0.0000000000   0.5000000000
   0.5000000000  -0.2500000000   0.0000000000
   0.5000000000   0.2500000000  -0.0000000000
   0.0000000000   0.5000000000   0.2500000000
  -0.0000000000   0.5000000000  -0.2500000000
   0.2500000000   0.5000000000   0.0000000000
  -0.2500000000   0.5000000000  -0.0000000000
   0.5000000000   0.0000000000   0.2500000000
   0.5000000000  -0.0000000000  -0.2500000000
   0.0000000000   0.3750000000   0.3750000000
  -0.0000000000  -0.3750000000  -0.3750000000
   0.0000000000  -0.3750000000   0.3750000000
  -0.0000000000   0.3750000000  -0.3750000000
   0.3750000000   0.0000000000  -0.3750000000
  -0.3750000000  -0.0000000000   0.3750000000
  -0.3750000000   0.0000000000  -0.3750000000
   0.3750000000  -0.0000000000   0.3750000000
   0.3750000000  -0.3750000000   0.0000000000
  -0.3750000000   0.3750000000  -0.0000000000
  -0.3750000000  -0.3750000000   0.0000000000
   0.3750000000   0.3750000000  -0.0000000000
   0.0000000000   0.3750000000   0.5000000000
  -0.0000000000  -0.3750000000   0.5000000000
   0.3750000000   0.0000000000   0.5000000000
  -0.3750000000  -0.0000000000   0.5000000000
   0.5000000000  -0.3750000000   0.0000000000
   0.5000000000   0.3750000000  -0.0000000000
   0.0000000000   0.5000000000   0.3750000000
  -0.0000000000   0.5000000000  -0.3750000000
   0.3750000000   0.5000000000   0.0000000000
  -0.3750000000   0.5000000000  -0.0000000000
   0.5000000000   0.0000000000   0.3750000000
   0.5000000000  -0.0000000000  -0.3750000000
   0.0000000000   0.5000000000   0.5000000000
   0.5000000000   0.0000000000   0.5000000000
   0.5000000000   0.5000000000   0.0000000000
   0.1250000000   0.1250000000   0.1250000000
  -0.1250000000  -0.1250000000  -0.1250000000
  -0.1250000000  -0.1250000000   0.1250000000
   0.1250000000   0.1250000000  -0.1250000000
  -0.1250000000   0.1250000000  -0.1250000000
   0.1250000000  -0.1250000000   0.1250000000
   0.1250000000  -0.1250000000  -0.1250000000
  -0.1250000000   0.1250000000   0.1250000000
   0.1250000000   0.1250000000   0.2500000000
  -0.1250000000  -0.1250000000  -0.2500000000
  -0.1250000000  -0.1250000000   0.2500000000
   0.1250000000   0.1250000000  -0.2500000000
  -0.1250000000   0.1250000000  -0.2500000000
   0.1250000000  -0.1250000000   0.2500000000
   0.1250000000  -0.1250000000  -0.2500000000
  -0.1250000000   0.1250000000   0.2500000000
   0.2500000000  -0.1250000000   0.1250000000
  -0.2500000000   0.1250000000  -0.1250000000
  -0.2500000000  -0.1250000000  -0.1250000000
   0.2500000000   0.1250000000   0.1250000000
   0.2500000000   0.1250000000  -0.1250000000
  -0.2500000000  -0.1250000000   0.1250000000
  -0.2500000000   0.1250000000   0.1250000000
   0.2500000000  -0.1250000000  -0.1250000000
  -0.1250000000   0.2500000000   0.1250000000
   0.1250000000  -0.2500000000  -0.1250000000
  -0.1250000000  -0.2500000000  -0.1250000000
   0.1250000000   0.2500000000   0.1250000000
   0.1250000000   0.2500000000  -0.1250000000
  -0.1250000000  -0.2500000000   0.1250000000
   0.1250000000  -0.2500000000   0.1250000000
  -0.1250000000   0.2500000000  -0.1250000000
   0.1250000000   0.1250000000   0.3750000000
  -0.1250000000  -0.1250000000  -0.3750000000
  -0.1250000000  -0.1250000000   0.3750000000
   0.1250000000   0.1250000000  -0.3750000000
  -0.1250000000   0.1250000000  -0.3750000000
   0.1250000000  -0.1250000000   0.3750000000
   0.1250000000  -0.1250000000  -0.3750000000
  -0.1250000000   0.1250000000   0.3750000000
   0.3750000000  -0.1250000000   0.1250000000
  -0.3750000000   0.1250000000  -0.1250000000
  -0.3750000000  -0.1250000000  -0.1250000000
   0.3750000000   0.1250000000   0.1250000000
   0.3750000000   0.1250000000  -0.1250000000
  -0.3750000000  -0.1250000000   0.1250000000
  -0.3750000000   0.1250000000   0.1250000000
   0.3750000000  -0.1250000000  -0.1250000000
  -0.1250000000   0.3750000000   0.1250000000
   0.1250000000  -0.3750000000  -0.1250000000
  -0.1250000000  -0.3750000000  -0.1250000000
   0.1250000000   0.3750000000   0.1250000000
   0.1250000000   0.3750000000  -0.1250000000
  -0.1250000000  -0.3750000000   0.1250000000
   0.1250000000  -0.3750000000   0.1250000000
  -0.1250000000   0.3750000000  -0.1250000000
   0.1250000000   0.1250000000   0.5000000000
  -0.1250000000  -0.1250000000   0.5000000000
  -0.1250000000   0.1250000000   0.5000000000
   0.1250000000  -0.1250000000   0.5000000000
   0.5000000000  -0.1250000000   0.1250000000
   0.5000000000   0.1250000000  -0.1250000000
   0.5000000000  -0.1250000000  -0.1250000000
   0.5000000000   0.1250000000   0.1250000000
  -0.1250000000   0.5000000000   0.1250000000
   0.1250000000   0.5000000000  -0.1250000000
  -0.1250000000   0.5000000000  -0.1250000000
   0.1250000000   0.5000000000   0.1250000000
   0.1250000000   0.2500000000   0.2500000000
  -0.1250000000  -0.2500000000  -0.2500000000
  -0.1250000000  -0.2500000000   0.2500000000
   0.1250000000   0.2500000000  -0.2500000000
  -0.1250000000   0.2500000000  -0.2500000000
   0.1250000000  -0.2500000000   0.2500000000
   0.1250000000  -0.2500000000  -0.2500000000
  -0.1250000000   0.2500000000   0.2500000000
   0.2500000000   0.1250000000  -0.2500000000
  -0.2500000000  -0.1250000000   0.2500000000
  -0.2500000000  -0.1250000000  -0.2500000000
   0.2500000000   0.1250000000   0.2500000000
   0.2500000000  -0.1250000000   0.2500000000
  -0.2500000000   0.1250000000  -0.2500000000
  -0.2500000000   0.1250000000   0.2500000000
   0.2500000000  -0.1250000000  -0.2500000000
   0.2500000000  -0.2500000000   0.1250000000
  -0.2500000000   0.2500000000  -0.1250000000
  -0.2500000000  -0.2500000000  -0.1250000000
   0.2500000000   0.2500000000   0.1250000000
   0.2500000000   0.2500000000  -0.1250000000
  -0.2500000000  -0.2500000000   0.1250000000
  -0.2500000000   0.2500000000   0.1250000000
   0.2500000000  -0.2500000000  -0.1250000000
   0.1250000000   0.2500000000   0.3750000000
  -0.1250000000  -0.2500000000  -0.3750000000
  -0.1250000000  -0.2500000000   0.3750000000
   0.1250000000   0.2500000000  -0.3750000000
  -0.1250000000   0.2500000000  -0.3750000000
   0.1250000000  -0.2500000000   0.3750000000
   0.1250000000  -0.2500000000  -0.3750000000
  -0.1250000000   0.2500000000   0.3750000000
   0.2500000000   0.1250000000  -0.3750000000
  -0.2500000000  -0.1250000000   0.3750000000
  -0.2500000000  -0.1250000000  -0.3750000000
   0.2500000000   0.1250000000   0.3750000000
   0.2500000000  -0.1250000000   0.3750000000
  -0.2500000000   0.1250000000  -0.3750000000
  -0.2500000000   0.1250000000   0.3750000000
   0.2500000000  -0.1250000000  -0.3750000000
   0.3750000000  -0.2500000000   0.1250000000
  -0.3750000000   0.2500000000  -0.1250000000
  -0.3750000000  -0.2500000000  -0.1250000000
   0.3750000000   0.2500000000   0.1250000000
   0.3750000000   0.2500000000  -0.1250000000
  -0.3750000000  -0.2500000000   0.1250000000
  -0.3750000000   0.2500000000   0.1250000000
   0.3750000000  -0.2500000000  -0.1250000000
  -0.1250000000   0.3750000000   0.2500000000
   0.1250000000  -0.3750000000  -0.2500000000
  -0.1250000000  -0.3750000000  -0.2500000000
   0.1250000000   0.3750000000   0.2500000000
   0.1250000000   0.3750000000  -0.2500000000
  -0.1250000000  -0.3750000000   0.2500000000
   0.1250000000  -0.3750000000   0.2500000000
  -0.1250000000   0.3750000000  -0.2500000000
   0.2500000000   0.3750000000   0.1250000000
  -0.2500000000  -0.3750000000  -0.1250000000
  -0.2500000000   0.3750000000  -0.1250000000
   0.2500000000  -0.3750000000   0.1250000000
   0.2500000000  -0.3750000000  -0.1250000000
  -0.2500000000   0.3750000000   0.1250000000
  -0.2500000000  -0.3750000000   0.1250000000
   0.2500000000   0.3750000000  -0.1250000000
   0.3750000000   0.1250000000   0.2500000000
  -0.3750000000  -0.1250000000  -0.2500000000
   0.3750000000  -0.1250000000  -0.2500000000
  -0.3750000000   0.1250000000   0.2500000000
  -0.3750000000  -0.1250000000   0.2500000000
   0.3750000000   0.1250000000  -0.2500000000
  -0.3750000000   0.1250000000  -0.2500000000
   0.3750000000  -0.1250000000   0.2500000000
   0.1250000000   0.2500000000   0.5000000000
  -0.1250000000  -0.2500000000   0.5000000000
  -0.1250000000   0.2500000000   0.5000000000
   0.1250000000  -0.2500000000   0.5000000000
   0.2500000000   0.1250000000   0.5000000000
  -0.2500000000  -0.1250000000   0.5000000000
   0.2500000000  -0.1250000000   0.5000000000
  -0.2500000000   0.1250000000   0.5000000000
   0.5000000000  -0.2500000000   0.1250000000
   0.5000000000   0.2500000000  -0.1250000000
   0.5000000000  -0.2500000000  -0.1250000000
   0.5000000000   0.2500000000   0.1250000000
  -0.1250000000   0.5000000000   0.2500000000
   0.1250000000   0.5000000000  -0.2500000000
  -0.1250000000   0.5000000000  -0.2500000000
   0.1250000000   0.5000000000   0.2500000000
   0.2500000000   0.5000000000   0.1250000000
  -0.2500000000   0.5000000000  -0.1250000000
   0.2500000000   0.5000000000  -0.1250000000
  -0.2500000000   0.5000000000   0.1250000000
   0.5000000000   0.1250000000   0.2500000000
   0.5000000000  -0.1250000000  -0.2500000000
   0.5000000000  -0.1250000000   0.2500000000
   0.5000000000   0.1250000000  -0.2500000000
   0.1250000000   0.3750000000   0.3750000000
  -0.1250000000  -0.3750000000  -0.3750000000
  -0.1250000000  -0.3750000000   0.3750000000
   0.1250000000   0.3750000000  -0.3750000000
  -0.1250000000   0.3750000000  -0.3750000000
   0.1250000000  -0.3750000000   0.3750000000
   0.1250000000  -0.3750000000  -0.3750000000
  -0.1250000000   0.3750000000   0.3750000000
   0.3750000000   0.1250000000  -0.3750000000
  -0.3750000000  -0.1250000000   0.3750000000
  -0.3750000000  -0.1250000000  -0.3750000000
   0.3750000000   0.1250000000   0.3750000000
   0.3750000000  -0.1250000000   0.3750000000
  -0.3750000000   0.1250000000  -0.3750000000
  -0.3750000000   0.1250000000   0.3750000000
   0.3750000000  -0.1250000000  -0.3750000000
   0.3750000000  -0.3750000000   0.1250000000
  -0.3750000000   0.3750000000  -0.1250000000
  -0.3750000000  -0.3750000000  -0.1250000000
   0.3750000000   0.3750000000   0.1250000000
   0.3750000000   0.3750000000  -0.1250000000
  -0.3750000000  -0.3750000000   0.1250000000
  -0.3750000000   0.3750000000   0.1250000000
   0.3750000000  -0.3750000000  -0.1250000000
   0.1250000000   0.3750000000   0.5000000000
  -0.1250000000  -0.3750000000   0.5000000000
  -0.1250000000   0.3750000000   0.5000000000
   0.1250000000  -0.3750000000   0.5000000000
   0.3750000000   0.1250000000   0.5000000000
  -0.3750000000  -0.1250000000   0.5000000000
   0.3750000000  -0.1250000000   0.5000000000
  -0.3750000000   0.1250000000   0.5000000000
   0.5000000000  -0.3750000000   0.1250000000
   0.5000000000   0.3750000000  -0.1250000000
   0.5000000000  -0.3750000000  -0.1250000000
   0.5000000000   0.3750000000   0.1250000000
  -0.1250000000   0.5000000000   0.3750000000
   0.1250000000   0.5000000000  -0.3750000000
  -0.1250000000   0.5000000000  -0.3750000000
   0.1250000000   0.5000000000   0.3750000000
   0.3750000000   0.5000000000   0.1250000000
  -0.3750000000   0.5000000000  -0.1250000000
   0.3750000000   0.5000000000  -0.1250000000
  -0.3750000000   0.5000000000   0.1250000000
   0.5000000000   0.1250000000   0.3750000000
   0.5000000000  -0.1250000000  -0.3750000000
   0.5000000000  -0.1250000000   0.3750000000
   0.5000000000   0.1250000000  -0.3750000000
   0.1250000000   0.5000000000   0.5000000000
  -0.1250000000   0.5000000000   0.5000000000
   0.5000000000   0.1250000000   0.5000000000
   0.5000000000  -0.1250000000   0.5000000000
   0.5000000000   0.5000000000   0.1250000000
   0.5000000000   0.5000000000  -0.1250000000
   0.2500000000   0.2500000000   0.2500000000
  -0.2500000000  -0.2500000000  -0.2500000000
  -0.2500000000  -0.2500000000   0.2500000000
   0.2500000000   0.2500000000  -0.2500000000
  -0.2500000000   0.2500000000  -0.2500000000
   0.2500000000  -0.2500000000   0.2500000000
   0.2500000000  -0.2500000000  -0.2500000000
  -0.2500000000   0.2500000000   0.2500000000
   0.2500000000   0.2500000000   0.3750000000
  -0.2500000000  -0.2500000000  -0.3750000000
  -0.2500000000  -0.2500000000   0.3750000000
   0.2500000000   0.2500000000  -0.3750000000
  -0.2500000000   0.2500000000  -0.3750000000
   0.2500000000  -0.2500000000   0.3750000000
   0.2500000000  -0.2500000000  -0.3750000000
  -0.2500000000   0.2500000000   0.3750000000
   0.3750000000  -0.2500000000   0.2500000000
  -0.3750000000   0.2500000000  -0.2500000000
  -0.3750000000  -0.2500000000  -0.2500000000
   0.3750000000   0.2500000000   0.2500000000
   0.3750000000   0.2500000000  -0.2500000000
  -0.3750000000  -0.2500000000   0.2500000000
  -0.3750000000   0.2500000000   0.2500000000
   0.3750000000  -0.2500000000  -0.2500000000
  -0.2500000000   0.3750000000   0.2500000000
   0.2500000000  -0.3750000000  -0.2500000000
  -0.2500000000  -0.3750000000  -0.2500000000
   0.2500000000   0.3750000000   0.2500000000
   0.2500000000   0.3750000000  -0.2500000000
  -0.2500000000  -0.3750000000   0.2500000000
   0.2500000000  -0.3750000000   0.2500000000
  -0.2500000000   0.3750000000  -0.2500000000
   0.2500000000   0.2500000000   0.5000000000
  -0.2500000000  -0.2500000000   0.5000000000
  -0.2500000000   0.2500000000   0.5000000000
   0.2500000000  -0.2500000000   0.5000000000
   0.5000000000  -0.2500000000   0.2500000000
   0.5000000000   0.2500000000  -0.2500000000
   0.5000000000  -0.2500000000  -0.2500000000
   0.5000000000   0.2500000000   0.2500000000
  -0.2500000000   0.5000000000   0.2500000000
   0.2500000000   0.5000000000  -0.2500000000
  -0.2500000000   0.5000000000  -0.2500000000
   0.2500000000   0.5000000000   0.2500000000
   0.2500000000   0.3750000000   0.3750000000
  -0.2500000000  -0.3750000000  -0.3750000000
  -0.2500000000  -0.3750000000   0.3750000000
   0.2500000000   0.3750000000  -0.3750000000
  -0.2500000000   0.3750000000  -0.3750000000
   0.2500000000  -0.3750000000   0.3750000000
   0.2500000000  -0.3750000000  -0.3750000000
  -0.2500000000   0.3750000000   0.3750000000
   0.3750000000   0.2500000000  -0.3750000000
  -0.3750000000  -0.2500000000   0.3750000000
  -0.3750000000  -0.2500000000  -0.3750000000
   0.3750000000   0.2500000000   0.3750000000
   0.3750000000  -0.2500000000   0.3750000000
  -0.3750000000   0.2500000000  -0.3750000000
  -0.3750000000   0.2500000000   0.3750000000
   0.3750000000  -0.2500000000  -0.3750000000
   0.3750000000  -0.3750000000   0.2500000000
  -0.3750000000   0.3750000000  -0.2500000000
  -0.3750000000  -0.3750000000  -0.2500000000
   0.3750000000   0.3750000000   0.2500000000
   0.3750000000   0.3750000000  -0.2500000000
  -0.3750000000  -0.3750000000   0.2500000000
  -0.3750000000   0.3750000000   0.2500000000
   0.3750000000  -0.3750000000  -0.2500000000
   0.2500000000   0.3750000000   0.5000000000
  -0.2500000000  -0.3750000000   0.5000000000
  -0.2500000000   0.3750000000   0.5000000000
   0.2500000000  -0.3750000000   0.5000000000
   0.3750000000   0.2500000000   0.5000000000
  -0.3750000000  -0.2500000000   0.5000000000
   0.3750000000  -0.2500000000   0.5000000000
  -0.3750000000   0.2500000000   0.5000000000
   0.5000000000  -0.3750000000   0.2500000000
   0.5000000000   0.3750000000  -0.2500000000
   0.5000000000  -0.3750000000  -0.2500000000
   0.5000000000   0.3750000000   0.2500000000
  -0.2500000000   0.5000000000   0.3750000000
   0.2500000000   0.5000000000  -0.3750000000
  -0.2500000000   0.5000000000  -0.3750000000
   0.2500000000   0.5000000000   0.3750000000
   0.3750000000   0.5000000000   0.2500000000
  -0.3750000000   0.5000000000  -0.2500000000
   0.3750000000   0.5000000000  -0.2500000000
  -0.3750000000   0.5000000000   0.2500000000
   0.5000000000   0.2500000000   0.3750000000
   0.5000000000  -0.2500000000  -0.3750000000
   0.5000000000  -0.2500000000   0.3750000000
   0.5000000000   0.2500000000  -0.3750000000
   0.2500000000   0.5000000000   0.5000000000
  -0.2500000000   0.5000000000   0.5000000000
   0.5000000000   0.2500000000   0.5000000000
   0.5000000000  -0.2500000000   0.5000000000
   0.5000000000   0.5000000000   0.2500000000
   0.5000000000   0.5000000000  -0.2500000000
   0.3750000000   0.3750000000   0.3750000000
  -0.3750000000  -0.3750000000  -0.3750000000
  -0.3750000000  -0.3750000000   0.3750000000
   0.3750000000   0.3750000000  -0.3750000000
  -0.3750000000   0.3750000000  -0.3750000000
   0.3750000000  -0.3750000000   0.3750000000
   0.3750000000  -0.3750000000  -0.3750000000
  -0.3750000000   0.3750000000   0.3750000000
   0.3750000000   0.3750000000   0.5000000000
  -0.3750000000  -0.3750000000   0.5000000000
  -0.3750000000   0.3750000000   0.5000000000
   0.3750000000  -0.3750000000   0.5000000000
   0.5000000000  -0.3750000000   0.3750000000
   0.5000000000   0.3750000000  -0.3750000000
   0.5000000000  -0.3750000000  -0.3750000000
   0.5000000000   0.3750000000   0.3750000000
  -0.3750000000   0.5000000000   0.3750000000
   0.3750000000   0.5000000000  -0.3750000000
  -0.3750000000   0.5000000000  -0.3750000000
   0.3750000000   0.5000000000   0.3750000000
   0.3750000000   0.5000000000   0.5000000000
  -0.3750000000   0.5000000000   0.5000000000
   0.5000000000   0.3750000000   0.5000000000
   0.5000000000  -0.3750000000   0.5000000000
   0.5000000000   0.5000000000   0.3750000000
   0.5000000000   0.5000000000  -0.3750000000
   0.5000000000   0.5000000000   0.5000000000
end kpoints
